data/solutions/recovery/degenerate/moderate/binding/degenerate_moderate_instance4/9.sol
Elapsed time: 0.04
Upper bound: 6214086.0
Planning weighted value: 27488772.0
C[0]=6214086.0
C[1]=6118736.0
C[2]=0.0
y[0]=0
y[1]=1
y[2]=0
y[3]=1
y[4]=0
y[5]=1
y[6]=1
y[7]=0
y[8]=0
y[9]=0
y[10]=0
y[11]=1
y[12]=1
y[13]=1
y[14]=0
y[15]=1
y[16]=1
y[17]=0
y[18]=1
y[19]=1
y[20]=0
y[21]=1
y[22]=1
y[23]=0
y[24]=0
